p col 125 787
p 1 12
p 1 37
p 1 42
p 1 53
p 1 56
p 1 67
p 1 87
p 1 95
p 1 106
p 1 108
p 1 109
p 1 118
p 2 3
p 2 13
p 2 15
p 2 20
p 2 53
p 2 55
p 2 56
p 2 66
p 2 75
p 2 90
p 2 120
p 3 16
p 3 22
p 3 31
p 3 34
p 3 35
p 3 42
p 3 56
p 3 57
p 3 65
p 3 80
p 3 83
p 3 89
p 3 94
p 3 108
p 3 115
p 3 117
p 4 22
p 4 25
p 4 31
p 4 34
p 4 48
p 4 68
p 4 69
p 4 76
p 4 77
p 4 83
p 4 85
p 4 93
p 5 20
p 5 22
p 5 23
p 5 27
p 5 28
p 5 33
p 5 38
p 5 74
p 5 84
p 5 95
p 5 97
p 5 108
p 6 14
p 6 15
p 6 31
p 6 65
p 6 70
p 6 78
p 6 83
p 6 104
p 6 105
p 6 114
p 6 125
p 7 14
p 7 30
p 7 58
p 7 78
p 7 81
p 7 86
p 7 108
p 8 12
p 8 40
p 8 44
p 8 58
p 8 110
p 8 113
p 8 121
p 9 12
p 9 26
p 9 32
p 9 46
p 9 64
p 9 69
p 9 74
p 9 88
p 9 108
p 9 116
p 9 124
p 10 20
p 10 29
p 10 33
p 10 34
p 10 54
p 10 71
p 10 83
p 10 95
p 10 118
p 10 121
p 11 15
p 11 26
p 11 51
p 11 59
p 11 86
p 11 97
p 11 112
p 11 124
p 12 15
p 12 33
p 12 43
p 12 68
p 12 76
p 12 78
p 12 84
p 12 88
p 12 89
p 12 92
p 12 102
p 12 104
p 12 114
p 13 14
p 13 48
p 13 65
p 13 71
p 13 78
p 13 84
p 13 88
p 13 102
p 13 108
p 13 121
p 13 124
p 14 28
p 14 35
p 14 42
p 14 63
p 14 64
p 14 71
p 14 73
p 14 87
p 14 89
p 14 93
p 14 106
p 14 108
p 15 32
p 15 38
p 15 51
p 15 57
p 15 67
p 15 71
p 15 75
p 15 77
p 15 79
p 15 94
p 15 96
p 15 109
p 15 119
p 15 124
p 16 21
p 16 23
p 16 25
p 16 29
p 16 40
p 16 44
p 16 53
p 16 64
p 16 68
p 16 72
p 16 74
p 16 76
p 16 80
p 16 89
p 16 101
p 16 103
p 16 112
p 17 30
p 17 33
p 17 42
p 17 43
p 17 50
p 17 56
p 17 60
p 17 64
p 17 68
p 17 72
p 17 83
p 17 88
p 17 97
p 17 102
p 17 111
p 17 116
p 18 27
p 18 30
p 18 52
p 18 57
p 18 62
p 18 65
p 18 102
p 18 104
p 18 113
p 19 20
p 19 60
p 19 61
p 19 83
p 19 106
p 19 113
p 19 124
p 20 35
p 20 70
p 20 74
p 20 91
p 20 94
p 20 100
p 20 107
p 20 108
p 20 113
p 21 24
p 21 25
p 21 27
p 21 30
p 21 38
p 21 57
p 21 62
p 21 66
p 21 71
p 21 78
p 21 85
p 21 86
p 21 102
p 21 110
p 22 23
p 22 31
p 22 37
p 22 61
p 22 91
p 22 106
p 22 121
p 23 25
p 23 32
p 23 41
p 23 50
p 23 69
p 23 70
p 23 95
p 23 100
p 23 102
p 23 107
p 24 62
p 24 78
p 24 83
p 24 91
p 24 97
p 24 111
p 24 114
p 24 120
p 25 28
p 25 35
p 25 38
p 25 42
p 25 63
p 25 64
p 25 78
p 26 27
p 26 37
p 26 52
p 26 56
p 26 72
p 26 79
p 26 83
p 26 95
p 26 97
p 26 98
p 26 113
p 27 31
p 27 44
p 27 50
p 27 57
p 27 62
p 27 74
p 27 93
p 27 116
p 27 125
p 28 31
p 28 38
p 28 48
p 28 64
p 28 72
p 28 76
p 28 79
p 28 85
p 28 96
p 28 108
p 28 112
p 29 46
p 29 53
p 29 73
p 29 76
p 29 78
p 29 106
p 30 44
p 30 50
p 30 54
p 30 68
p 30 71
p 30 108
p 30 113
p 31 73
p 31 76
p 31 87
p 31 89
p 31 94
p 31 111
p 32 34
p 32 51
p 32 62
p 32 63
p 32 67
p 32 68
p 32 75
p 32 82
p 32 108
p 32 117
p 32 120
p 33 36
p 33 71
p 33 77
p 33 86
p 33 89
p 33 91
p 33 94
p 33 107
p 33 108
p 33 115
p 33 116
p 33 124
p 34 42
p 34 58
p 34 62
p 34 64
p 34 75
p 34 118
p 35 61
p 35 76
p 35 79
p 35 81
p 35 90
p 35 94
p 35 115
p 35 120
p 36 50
p 36 51
p 36 56
p 36 60
p 36 61
p 36 71
p 36 73
p 36 75
p 36 78
p 36 79
p 36 81
p 36 85
p 36 88
p 36 90
p 36 91
p 36 97
p 36 100
p 36 103
p 36 105
p 36 109
p 36 122
p 37 40
p 37 41
p 37 43
p 37 48
p 37 75
p 37 88
p 37 95
p 37 98
p 37 103
p 37 110
p 38 46
p 38 51
p 38 76
p 38 98
p 38 99
p 38 104
p 38 105
p 38 108
p 38 112
p 38 113
p 39 56
p 39 59
p 39 76
p 39 77
p 39 82
p 39 84
p 39 106
p 39 117
p 39 122
p 40 73
p 40 74
p 40 75
p 40 85
p 40 112
p 41 49
p 41 55
p 41 70
p 41 102
p 41 108
p 41 111
p 41 116
p 41 124
p 41 125
p 42 46
p 42 51
p 42 61
p 42 63
p 42 81
p 42 82
p 42 83
p 42 107
p 42 113
p 42 115
p 42 122
p 42 123
p 43 65
p 43 70
p 43 71
p 43 73
p 43 92
p 43 93
p 43 113
p 43 119
p 43 121
p 43 125
p 44 53
p 44 56
p 44 57
p 44 90
p 44 97
p 44 109
p 44 119
p 44 124
p 45 76
p 45 81
p 45 93
p 45 94
p 45 111
p 45 112
p 46 47
p 46 50
p 46 52
p 46 83
p 46 99
p 46 105
p 46 121
p 47 61
p 47 62
p 47 82
p 47 83
p 47 84
p 47 99
p 47 100
p 47 103
p 48 51
p 48 52
p 48 55
p 48 57
p 48 95
p 48 103
p 48 109
p 49 57
p 49 59
p 49 69
p 49 87
p 49 100
p 49 105
p 49 109
p 50 58
p 50 76
p 50 79
p 50 82
p 50 88
p 50 89
p 50 93
p 50 101
p 50 102
p 50 107
p 51 63
p 51 69
p 51 73
p 51 74
p 51 81
p 51 89
p 51 95
p 51 102
p 51 103
p 51 113
p 51 120
p 51 125
p 52 61
p 52 71
p 52 72
p 52 92
p 52 97
p 52 102
p 52 116
p 53 55
p 53 57
p 53 76
p 53 81
p 53 84
p 53 91
p 53 121
p 53 122
p 54 91
p 54 94
p 54 119
p 55 56
p 55 63
p 55 74
p 55 81
p 55 83
p 55 87
p 55 95
p 55 100
p 55 116
p 55 119
p 55 120
p 56 66
p 56 84
p 56 93
p 56 106
p 56 113
p 57 74
p 57 103
p 57 118
p 58 80
p 58 90
p 58 98
p 58 105
p 58 107
p 58 108
p 58 122
p 58 124
p 59 65
p 59 73
p 59 75
p 59 98
p 59 100
p 59 107
p 59 122
p 60 92
p 60 98
p 61 66
p 61 79
p 61 80
p 61 83
p 61 95
p 61 116
p 61 120
p 62 68
p 62 88
p 62 93
p 62 97
p 62 112
p 62 117
p 63 74
p 63 77
p 63 79
p 63 88
p 63 90
p 63 95
p 63 101
p 63 102
p 63 115
p 64 80
p 64 84
p 64 85
p 64 86
p 64 88
p 64 93
p 64 100
p 64 110
p 64 113
p 64 114
p 64 115
p 65 72
p 65 81
p 65 111
p 65 121
p 66 74
p 66 90
p 66 92
p 66 95
p 66 97
p 66 100
p 66 108
p 66 115
p 66 123
p 67 87
p 67 94
p 67 107
p 67 115
p 67 124
p 68 73
p 68 78
p 68 81
p 68 88
p 68 89
p 68 105
p 68 106
p 68 113
p 68 120
p 69 83
p 69 85
p 69 94
p 69 100
p 69 103
p 69 116
p 69 121
p 70 84
p 70 94
p 70 107
p 70 112
p 71 75
p 71 88
p 71 100
p 71 103
p 72 75
p 72 76
p 72 101
p 72 103
p 72 122
p 72 123
p 73 79
p 73 82
p 73 86
p 73 90
p 73 93
p 73 95
p 73 96
p 73 108
p 73 117
p 73 122
p 75 76
p 75 79
p 75 81
p 75 90
p 75 97
p 75 103
p 75 108
p 75 112
p 75 113
p 75 118
p 76 80
p 76 83
p 76 89
p 76 110
p 76 117
p 76 119
p 77 90
p 77 100
p 77 105
p 77 107
p 77 120
p 78 90
p 78 105
p 78 112
p 78 119
p 78 121
p 79 108
p 79 118
p 80 92
p 81 84
p 81 87
p 81 112
p 81 114
p 81 124
p 82 89
p 82 94
p 82 97
p 82 99
p 83 86
p 83 91
p 83 100
p 83 103
p 83 106
p 83 113
p 83 125
p 84 90
p 84 107
p 84 122
p 85 89
p 85 109
p 85 112
p 85 124
p 86 88
p 86 117
p 86 120
p 86 123
p 87 88
p 87 92
p 87 93
p 87 96
p 87 103
p 87 116
p 87 124
p 88 92
p 88 116
p 88 120
p 88 121
p 89 96
p 89 112
p 89 121
p 90 91
p 90 93
p 90 97
p 90 105
p 90 110
p 90 116
p 90 122
p 91 113
p 91 120
p 91 123
p 92 97
p 92 120
p 93 109
p 93 116
p 94 96
p 94 97
p 94 106
p 94 108
p 94 115
p 94 123
p 95 98
p 95 99
p 95 119
p 95 122
p 95 125
p 96 100
p 96 101
p 96 109
p 96 115
p 96 119
p 97 116
p 97 117
p 97 118
p 98 123
p 99 102
p 99 109
p 100 118
p 100 125
p 101 104
p 101 112
p 102 110
p 102 120
p 102 123
p 103 105
p 103 106
p 103 109
p 104 105
p 105 112
p 105 117
p 105 122
p 106 121
p 106 122
p 107 118
p 107 124
p 108 115
p 109 118
p 113 117
p 113 123
p 115 119
p 116 118
p 116 123
p 117 118
p 117 119